0000000000000000
0001111000000000
0001111110000000
0001111110000000
0000001111000000
0000000111000000
0000000111000000
0000000111000000
0000000111000000
0000011111000000
0000111111000000
0001111111000000
0011110111000000
0011100111000000
0111000111100000
0000000000000000
